\ENCODING=ISO-8859-1
\Problem name: ilog.cplex

Minimize
 obj1: 107004 x1 + 103818 x2 + 96508 x3 + 107016 x4 + 98965 x5 + 106618 x6
       + 102795 x7 + 92848 x8 + 95379 x9 + 93983 x10 + 92154 x11 + 91767 x12
       + 93178 x13 + 98400 x14 + 108670 x15 + 106231 x16 + 108648 x17
       + 100890 x18 + 100072 x19 + 101581 x20 + 107234 x21 + 95079 x22
       + 102279 x23 + 96799 x24 + 107620 x25 + 100289 x26 + 91051 x27
       + 90435 x28 + 98171 x29 + 93212 x30 + 101230 x31 + 91554 x32
       + 105033 x33 + 91031 x34 + 90637 x35 + 96717 x36 + 108113 x37
       + 102782 x38 + 107897 x39 + 95726 x40 + 93688 x41 + 90274 x42
       + 91295 x43 + 101230 x44 + 100500 x45 + 105113 x46 + 99228 x47
       + 100281 x48 + 100017 x49 + 94114 x50 + 91863 x51 + 108616 x52
       + 100066 x53 + 102570 x54 + 106214 x55 + 95311 x56 + 92500 x57
       + 94159 x58 + 90181 x59 + 93053 x60 + 108921 x61 + 99846 x62
       + 102011 x63 + 99635 x64 + 103782 x65 + 95430 x66 + 104109 x67
       + 103754 x68 + 103078 x69 + 96943 x70 + 101080 x71 + 104015 x72
       + 98229 x73 + 96046 x74 + 107298 x75 + 103472 x76 + 109188 x77
       + 105465 x78 + 105227 x79 + 94530 x80 + 99877 x81 + 92190 x82
       + 107132 x83 + 98684 x84 + 98287 x85 + 96147 x86 + 104899 x87
       + 100968 x88 + 93461 x89 + 107703 x90 + 105313 x91 + 99875 x92
       + 92047 x93 + 108651 x94 + 101483 x95 + 100165 x96 + 98236 x97
       + 108196 x98 + 105013 x99 + 108108 x100 + 106610 x101 + 107941 x102
       + 108389 x103 + 99652 x104 + 91084 x105 + 92460 x106 + 101988 x107
       + 96256 x108 + 96018 x109 + 95737 x110 + 109618 x111 + 103385 x112
       + 96910 x113 + 105294 x114 + 99358 x115 + 101607 x116 + 92575 x117
       + 107944 x118 + 109482 x119 + 108383 x120 + 98751 x121 + 104833 x122
       + 92653 x123 + 105267 x124 + 95568 x125 + 95409 x126 + 90565 x127
       + 98976 x128 + 108597 x129 + 102288 x130 + 95723 x131 + 94393 x132
       + 106078 x133 + 96321 x134 + 100204 x135 + 97738 x136 + 103330 x137
       + 99173 x138 + 90043 x139 + 108928 x140 + 99476 x141 + 109326 x142
       + 98231 x143 + 103604 x144 + 91301 x145 + 96678 x146 + 99374 x147
       + 107317 x148 + 94385 x149 + 100738 x150 + 107942 x151 + 97226 x152
       + 108736 x153 + 93843 x154 + 94703 x155 + 104361 x156 + 92625 x157
       + 91375 x158 + 104555 x159 + 96565 x160 + 104413 x161 + 99357 x162
       + 100123 x163 + 90317 x164 + 103321 x165 + 102920 x166 + 93618 x167
       + 96220 x168 + 95625 x169 + 103544 x170 + 93187 x171 + 93052 x172
       + 107834 x173 + 104558 x174 + 106690 x175 + 103447 x176 + 100936 x177
       + 92080 x178 + 99315 x179 + 107529 x180 + 94821 x181 + 102690 x182
       + 106953 x183 + 97097 x184 + 100270 x185 + 90643 x186 + 103365 x187
       + 94878 x188 + 104818 x189 + 94719 x190 + 105905 x191 + 100843 x192
       + 108386 x193 + 97563 x194 + 101917 x195 + 100761 x196 + 94696 x197
       + 108877 x198 + 105943 x199 + 100922 x200 + 97348 x201 + 94766 x202
       + 90187 x203 + 90131 x204 + 107843 x205 + 96501 x206 + 99520 x207
       + 91349 x208 + 90870 x209 + 103613 x210 + 105762 x211 + 105497 x212
       + 106514 x213 + 99714 x214 + 97257 x215 + 105257 x216 + 101685 x217
       + 90726 x218 + 107645 x219 + 91188 x220 + 104237 x221 + 102182 x222
       + 95230 x223 + 90109 x224 + 108819 x225 + 102023 x226 + 96397 x227
       + 107804 x228 + 91038 x229 + 94636 x230 + 103658 x231 + 96175 x232
       + 95938 x233 + 108320 x234 + 93617 x235 + 109248 x236 + 91765 x237
       + 95390 x238 + 90474 x239 + 107235 x240 + 100697 x241 + 101854 x242
       + 96632 x243 + 103410 x244 + 94425 x245 + 101838 x246 + 93601 x247
       + 94621 x248 + 94422 x249 + 90911 x250 + 91987 x251 + 104547 x252
       + 103965 x253 + 104080 x254 + 107654 x255 + 101710 x256 + 92999 x257
       + 97620 x258 + 93602 x259 + 109032 x260 + 93481 x261 + 93486 x262
       + 109223 x263 + 98310 x264 + 105626 x265 + 96278 x266 + 103529 x267
       + 95358 x268 + 107610 x269 + 105706 x270 + 97185 x271 + 95438 x272
       + 99870 x273 + 104656 x274 + 104789 x275 + 106207 x276 + 94852 x277
       + 93605 x278 + 105413 x279 + 98682 x280 + 106183 x281 + 101399 x282
       + 94015 x283 + 94595 x284 + 103623 x285 + 90489 x286 + 91473 x287
       + 91948 x288 + 103122 x289 + 98558 x290 + 96809 x291 + 109654 x292
       + 94955 x293 + 97808 x294 + 91597 x295 + 96874 x296 + 97089 x297
       + 108235 x298 + 93594 x299 + 102978 x300 + 100021 x301 + 101545 x302
       + 101080 x303 + 103552 x304 + 91210 x305 + 102267 x306 + 96424 x307
       + 92829 x308 + 106036 x309 + 107013 x310 + 106105 x311 + 99212 x312
       + 95587 x313 + 105118 x314 + 93399 x315 + 101221 x316 + 100004 x317
       + 98204 x318 + 106257 x319 + 109269 x320 + 104142 x321 + 98850 x322
       + 108169 x323 + 104534 x324 + 107177 x325 + 99587 x326 + 109206 x327
       + 92225 x328 + 107266 x329 + 95697 x330 + 91898 x331 + 97846 x332
       + 103293 x333 + 95739 x334 + 97801 x335 + 108406 x336 + 102336 x337
       + 94876 x338 + 107545 x339 + 94395 x340 + 93690 x341 + 97799 x342
       + 109659 x343 + 102960 x344 + 108108 x345 + 100401 x346 + 91616 x347
       + 107831 x348 + 104401 x349 + 92356 x350 + 106371 x351 + 108585 x352
       + 98686 x353 + 93460 x354 + 94095 x355 + 109398 x356 + 92227 x357
       + 99017 x358 + 93564 x359 + 99959 x360 + 90126 x361 + 95600 x362
       + 108533 x363 + 94325 x364 + 108379 x365 + 103892 x366 + 106148 x367
       + 94910 x368 + 103070 x369 + 98549 x370 + 96176 x371 + 100872 x372
       + 99790 x373 + 97349 x374 + 102356 x375 + 94456 x376 + 105759 x377
       + 94147 x378 + 94416 x379 + 105182 x380 + 94940 x381 + 101988 x382
       + 97946 x383 + 106125 x384 + 97840 x385 + 92453 x386 + 98506 x387
       + 106586 x388 + 109783 x389 + 102629 x390 + 106269 x391 + 91063 x392
       + 94057 x393 + 92081 x394 + 107932 x395 + 95735 x396 + 99709 x397
       + 108753 x398 + 103781 x399 + 90539 x400 + 107463 x401 + 103086 x402
       + 92348 x403 + 94821 x404 + 103796 x405 + 98319 x406 + 98605 x407
       + 93593 x408 + 92870 x409 + 93988 x410 + 106843 x411 + 94490 x412
       + 94210 x413 + 95505 x414 + 104483 x415 + 104528 x416 + 90038 x417
       + 106654 x418 + 97840 x419 + 93448 x420 + 105696 x421 + 90943 x422
       + 105039 x423 + 92009 x424 + 97870 x425 + 99296 x426 + 101349 x427
       + 93478 x428 + 96328 x429 + 101686 x430 + 98227 x431 + 94339 x432
       + 102478 x433 + 109792 x434 + 90229 x435 + 107610 x436 + 101119 x437
       + 108009 x438 + 102356 x439 + 90109 x440 + 90595 x441 + 100879 x442
       + 94533 x443 + 103678 x444 + 100914 x445 + 96489 x446 + 109591 x447
       + 99573 x448 + 109436 x449 + 97393 x450 + 103313 x451 + 101296 x452
       + 102050 x453 + 97499 x454 + 103165 x455 + 105656 x456 + 107705 x457
       + 94855 x458 + 107891 x459 + 103406 x460 + 100677 x461 + 95720 x462
       + 90119 x463 + 105437 x464 + 96527 x465 + 99570 x466 + 91850 x467
       + 105057 x468 + 90847 x469 + 93469 x470 + 97180 x471 + 105866 x472
       + 91216 x473 + 102265 x474 + 103486 x475 + 108647 x476 + 93657 x477
       + 108808 x478 + 101546 x479 + 104145 x480 + 94080 x481 + 97092 x482
       + 92759 x483 + 104562 x484 + 100695 x485 + 107497 x486 + 109916 x487
       + 98183 x488 + 99473 x489 + 105175 x490 + 106900 x491 + 108741 x492
       + 101497 x493 + 90173 x494 + 102252 x495 + 103980 x496 + 108391 x497
       + 101003 x498 + 101714 x499 + 128946 x500 + 393262 x501 + 401409 x502
       + 401436 x503 + 433957 x504 + 421361 x505 + 403976 x506 + 381422 x507
       + 434492 x508 + 383749 x509 + 396874 x510 + 436638 x511 + 373486 x512
       + 429325 x513 + 394121 x514 + 364194 x515 + 398616 x516 + 372875 x517
       + 386714 x518 + 425331 x519 + 415756 x520 + 377608 x521 + 439096 x522
       + 420617 x523 + 419028 x524 + 399413 x525 + 406861 x526 + 423557 x527
       + 402804 x528 + 382001 x529 + 426519 x530 + 391816 x531 + 396217 x532
       + 374060 x533 + 414476 x534 + 430954 x535 + 390804 x536 + 408992 x537
       + 366211 x538 + 368802 x539 + 389493 x540 + 384764 x541 + 387967 x542
       + 429285 x543 + 410225 x544 + 385836 x545 + 362097 x546 + 412715 x547
       + 390084 x548 + 381129 x549 + 377575 x550
Subject To
 c1:   x4 - x5 + x6 - x14 - x29 + x42  = 0
 c2:   x54 - x55 + x56 - x64 - x79 + x92  = -1
 c3:   x104 - x105 + x106 - x114 - x129 + x142  = 0
 c4:   x154 - x155 + x156 - x164 - x179 + x192  = 0
 c5:   x204 - x205 + x206 - x214 - x229 + x242  = 0
 c6:   x254 - x255 + x256 - x264 - x279 + x292  = 0
 c7:   x304 - x305 + x306 - x314 - x329 + x342  = 1
 c8:   x354 - x355 + x356 - x364 - x379 + x392  = 0
 c9:   x404 - x405 + x406 - x414 - x429 + x442  = 0
 c10:  x454 - x455 + x456 - x464 - x479 + x492  = 0
 c11:  x5 - x6 + x8 - x10 + x12 - x15 + x16 - x21 + x36 + x41 - x45 - x46 - x47
       - x49  = 0
 c12:  x55 - x56 + x58 - x60 + x62 - x65 + x66 - x71 + x86 + x91 - x95 - x96
       - x97 - x99  = 0
 c13:  x105 - x106 + x108 - x110 + x112 - x115 + x116 - x121 + x136 + x141
       - x145 - x146 - x147 - x149  = 0
 c14:  x155 - x156 + x158 - x160 + x162 - x165 + x166 - x171 + x186 + x191
       - x195 - x196 - x197 - x199  = -1
 c15:  x205 - x206 + x208 - x210 + x212 - x215 + x216 - x221 + x236 + x241
       - x245 - x246 - x247 - x249  = 0
 c16:  x255 - x256 + x258 - x260 + x262 - x265 + x266 - x271 + x286 + x291
       - x295 - x296 - x297 - x299  = 1
 c17:  x305 - x306 + x308 - x310 + x312 - x315 + x316 - x321 + x336 + x341
       - x345 - x346 - x347 - x349  = 0
 c18:  x355 - x356 + x358 - x360 + x362 - x365 + x366 - x371 + x386 + x391
       - x395 - x396 - x397 - x399  = 0
 c19:  x405 - x406 + x408 - x410 + x412 - x415 + x416 - x421 + x436 + x441
       - x445 - x446 - x447 - x449  = 0
 c20:  x455 - x456 + x458 - x460 + x462 - x465 + x466 - x471 + x486 + x491
       - x495 - x496 - x497 - x499  = 0
 c21:  - x12 - x22 + x29 - x30 - x34 + x35 + x38 - x40  = 0
 c22:  - x62 - x72 + x79 - x80 - x84 + x85 + x88 - x90  = 0
 c23:  - x112 - x122 + x129 - x130 - x134 + x135 + x138 - x140  = 0
 c24:  - x162 - x172 + x179 - x180 - x184 + x185 + x188 - x190  = 0
 c25:  - x212 - x222 + x229 - x230 - x234 + x235 + x238 - x240  = 0
 c26:  - x262 - x272 + x279 - x280 - x284 + x285 + x288 - x290  = 0
 c27:  - x312 - x322 + x329 - x330 - x334 + x335 + x338 - x340  = 0
 c28:  - x362 - x372 + x379 - x380 - x384 + x385 + x388 - x390  = -1
 c29:  - x412 - x422 + x429 - x430 - x434 + x435 + x438 - x440  = 0
 c30:  - x462 - x472 + x479 - x480 - x484 + x485 + x488 - x490  = 1
 c31:  - x8 - x13 + x19 - x25 + x32 - x39 - x43 + x46 + x50  = 0
 c32:  - x58 - x63 + x69 - x75 + x82 - x89 - x93 + x96 + x100  = 0
 c33:  - x108 - x113 + x119 - x125 + x132 - x139 - x143 + x146 + x150  = 0
 c34:  - x158 - x163 + x169 - x175 + x182 - x189 - x193 + x196 + x200  = 0
 c35:  - x208 - x213 + x219 - x225 + x232 - x239 - x243 + x246 + x250  = -1
 c36:  - x258 - x263 + x269 - x275 + x282 - x289 - x293 + x296 + x300  = 0
 c37:  - x308 - x313 + x319 - x325 + x332 - x339 - x343 + x346 + x350  = 0
 c38:  - x358 - x363 + x369 - x375 + x382 - x389 - x393 + x396 + x400  = 1
 c39:  - x408 - x413 + x419 - x425 + x432 - x439 - x443 + x446 + x450  = 0
 c40:  - x458 - x463 + x469 - x475 + x482 - x489 - x493 + x496 + x500  = 0
 c41:  - x1 - x3 + x7 + x15 - x17 + x18 + x28 + x31 + x34 - x42 + x44  = 0
 c42:  - x51 - x53 + x57 + x65 - x67 + x68 + x78 + x81 + x84 - x92 + x94  = 1
 c43:  - x101 - x103 + x107 + x115 - x117 + x118 + x128 + x131 + x134 - x142
       + x144  = -1
 c44:  - x151 - x153 + x157 + x165 - x167 + x168 + x178 + x181 + x184 - x192
       + x194  = 0
 c45:  - x201 - x203 + x207 + x215 - x217 + x218 + x228 + x231 + x234 - x242
       + x244  = 0
 c46:  - x251 - x253 + x257 + x265 - x267 + x268 + x278 + x281 + x284 - x292
       + x294  = 0
 c47:  - x301 - x303 + x307 + x315 - x317 + x318 + x328 + x331 + x334 - x342
       + x344  = 0
 c48:  - x351 - x353 + x357 + x365 - x367 + x368 + x378 + x381 + x384 - x392
       + x394  = 0
 c49:  - x401 - x403 + x407 + x415 - x417 + x418 + x428 + x431 + x434 - x442
       + x444  = 0
 c50:  - x451 - x453 + x457 + x465 - x467 + x468 + x478 + x481 + x484 - x492
       + x494  = -1
 c51:  x2 + x9 - x16 - x27 + x30 - x31 + x33 + x47  = 0
 c52:  x52 + x59 - x66 - x77 + x80 - x81 + x83 + x97  = 0
 c53:  x102 + x109 - x116 - x127 + x130 - x131 + x133 + x147  = 0
 c54:  x152 + x159 - x166 - x177 + x180 - x181 + x183 + x197  = 0
 c55:  x202 + x209 - x216 - x227 + x230 - x231 + x233 + x247  = 0
 c56:  x252 + x259 - x266 - x277 + x280 - x281 + x283 + x297  = 0
 c57:  x302 + x309 - x316 - x327 + x330 - x331 + x333 + x347  = 0
 c58:  x352 + x359 - x366 - x377 + x380 - x381 + x383 + x397  = 0
 c59:  x402 + x409 - x416 - x427 + x430 - x431 + x433 + x447  = 0
 c60:  x452 + x459 - x466 - x477 + x480 - x481 + x483 + x497  = 0
 c61:  - x2 + x3 + x13 + x14 - x20 + x21 + x23 + x24 - x36 - x37 - x38 - x44
       - x48 - x50  = 0
 c62:  - x52 + x53 + x63 + x64 - x70 + x71 + x73 + x74 - x86 - x87 - x88 - x94
       - x98 - x100  = 0
 c63:  - x102 + x103 + x113 + x114 - x120 + x121 + x123 + x124 - x136 - x137
       - x138 - x144 - x148 - x150  = 0
 c64:  - x152 + x153 + x163 + x164 - x170 + x171 + x173 + x174 - x186 - x187
       - x188 - x194 - x198 - x200  = 0
 c65:  - x202 + x203 + x213 + x214 - x220 + x221 + x223 + x224 - x236 - x237
       - x238 - x244 - x248 - x250  = 0
 c66:  - x252 + x253 + x263 + x264 - x270 + x271 + x273 + x274 - x286 - x287
       - x288 - x294 - x298 - x300  = 0
 c67:  - x302 + x303 + x313 + x314 - x320 + x321 + x323 + x324 - x336 - x337
       - x338 - x344 - x348 - x350  = 0
 c68:  - x352 + x353 + x363 + x364 - x370 + x371 + x373 + x374 - x386 - x387
       - x388 - x394 - x398 - x400  = 0
 c69:  - x402 + x403 + x413 + x414 - x420 + x421 + x423 + x424 - x436 - x437
       - x438 - x444 - x448 - x450  = 0
 c70:  - x452 + x453 + x463 + x464 - x470 + x471 + x473 + x474 - x486 - x487
       - x488 - x494 - x498 - x500  = 0
 c71:  x1 - x7 + x10 + x22 - x24 + x25 - x26 + x27 - x35 + x48  = 1
 c72:  x51 - x57 + x60 + x72 - x74 + x75 - x76 + x77 - x85 + x98  = 0
 c73:  x101 - x107 + x110 + x122 - x124 + x125 - x126 + x127 - x135 + x148  = 0
 c74:  x151 - x157 + x160 + x172 - x174 + x175 - x176 + x177 - x185 + x198  = 0
 c75:  x201 - x207 + x210 + x222 - x224 + x225 - x226 + x227 - x235 + x248  = 0
 c76:  x251 - x257 + x260 + x272 - x274 + x275 - x276 + x277 - x285 + x298
        = -1
 c77:  x301 - x307 + x310 + x322 - x324 + x325 - x326 + x327 - x335 + x348
        = -1
 c78:  x351 - x357 + x360 + x372 - x374 + x375 - x376 + x377 - x385 + x398  = 0
 c79:  x401 - x407 + x410 + x422 - x424 + x425 - x426 + x427 - x435 + x448  = 1
 c80:  x451 - x457 + x460 + x472 - x474 + x475 - x476 + x477 - x485 + x498  = 0
 c81:  x11 - x18 - x19 + x20 - x23 - x33 + x39 + x49  = 0
 c82:  x61 - x68 - x69 + x70 - x73 - x83 + x89 + x99  = 0
 c83:  x111 - x118 - x119 + x120 - x123 - x133 + x139 + x149  = 1
 c84:  x161 - x168 - x169 + x170 - x173 - x183 + x189 + x199  = 1
 c85:  x211 - x218 - x219 + x220 - x223 - x233 + x239 + x249  = 1
 c86:  x261 - x268 - x269 + x270 - x273 - x283 + x289 + x299  = 0
 c87:  x311 - x318 - x319 + x320 - x323 - x333 + x339 + x349  = 0
 c88:  x361 - x368 - x369 + x370 - x373 - x383 + x389 + x399  = 0
 c89:  x411 - x418 - x419 + x420 - x423 - x433 + x439 + x449  = 0
 c90:  x461 - x468 - x469 + x470 - x473 - x483 + x489 + x499  = 0
 c91:  - x4 - x9 - x11 + x17 + x26 - x28 - x32 + x37 + x40 - x41 + x43 + x45
        = -1
 c92:  - x54 - x59 - x61 + x67 + x76 - x78 - x82 + x87 + x90 - x91 + x93 + x95
        = 0
 c93:  - x104 - x109 - x111 + x117 + x126 - x128 - x132 + x137 + x140 - x141
       + x143 + x145  = 0
 c94:  - x154 - x159 - x161 + x167 + x176 - x178 - x182 + x187 + x190 - x191
       + x193 + x195  = 0
 c95:  - x204 - x209 - x211 + x217 + x226 - x228 - x232 + x237 + x240 - x241
       + x243 + x245  = 0
 c96:  - x254 - x259 - x261 + x267 + x276 - x278 - x282 + x287 + x290 - x291
       + x293 + x295  = 0
 c97:  - x304 - x309 - x311 + x317 + x326 - x328 - x332 + x337 + x340 - x341
       + x343 + x345  = 0
 c98:  - x354 - x359 - x361 + x367 + x376 - x378 - x382 + x387 + x390 - x391
       + x393 + x395  = 0
 c99:  - x404 - x409 - x411 + x417 + x426 - x428 - x432 + x437 + x440 - x441
       + x443 + x445  = -1
 c100: - x454 - x459 - x461 + x467 + x476 - x478 - x482 + x487 + x490 - x491
       + x493 + x495  = 0
 c101: 4 x1 + 4 x51 + 4 x101 + 4 x151 + 4 x201 + 4 x251 + 4 x301 + 4 x351
       + 4 x401 + 4 x451 - 20 x501 <= 0
 c102: 4 x2 + 4 x52 + 4 x102 + 4 x152 + 4 x202 + 4 x252 + 4 x302 + 4 x352
       + 4 x402 + 4 x452 - 21 x502 <= 0
 c103: 4 x3 + 4 x53 + 4 x103 + 4 x153 + 4 x203 + 4 x253 + 4 x303 + 4 x353
       + 4 x403 + 4 x453 - 20 x503 <= 0
 c104: 4 x4 + 4 x54 + 4 x104 + 4 x154 + 4 x204 + 4 x254 + 4 x304 + 4 x354
       + 4 x404 + 4 x454 - 19 x504 <= 0
 c105: 4 x5 + 4 x55 + 4 x105 + 4 x155 + 4 x205 + 4 x255 + 4 x305 + 4 x355
       + 4 x405 + 4 x455 - 19 x505 <= 0
 c106: 4 x6 + 4 x56 + 4 x106 + 4 x156 + 4 x206 + 4 x256 + 4 x306 + 4 x356
       + 4 x406 + 4 x456 - 19 x506 <= 0
 c107: 4 x7 + 4 x57 + 4 x107 + 4 x157 + 4 x207 + 4 x257 + 4 x307 + 4 x357
       + 4 x407 + 4 x457 - 19 x507 <= 0
 c108: 4 x8 + 4 x58 + 4 x108 + 4 x158 + 4 x208 + 4 x258 + 4 x308 + 4 x358
       + 4 x408 + 4 x458 - 19 x508 <= 0
 c109: 4 x9 + 4 x59 + 4 x109 + 4 x159 + 4 x209 + 4 x259 + 4 x309 + 4 x359
       + 4 x409 + 4 x459 - 21 x509 <= 0
 c110: 4 x10 + 4 x60 + 4 x110 + 4 x160 + 4 x210 + 4 x260 + 4 x310 + 4 x360
       + 4 x410 + 4 x460 - 18 x510 <= 0
 c111: 4 x11 + 4 x61 + 4 x111 + 4 x161 + 4 x211 + 4 x261 + 4 x311 + 4 x361
       + 4 x411 + 4 x461 - 21 x511 <= 0
 c112: 4 x12 + 4 x62 + 4 x112 + 4 x162 + 4 x212 + 4 x262 + 4 x312 + 4 x362
       + 4 x412 + 4 x462 - 21 x512 <= 0
 c113: 4 x13 + 4 x63 + 4 x113 + 4 x163 + 4 x213 + 4 x263 + 4 x313 + 4 x363
       + 4 x413 + 4 x463 - 19 x513 <= 0
 c114: 4 x14 + 4 x64 + 4 x114 + 4 x164 + 4 x214 + 4 x264 + 4 x314 + 4 x364
       + 4 x414 + 4 x464 - 19 x514 <= 0
 c115: 4 x15 + 4 x65 + 4 x115 + 4 x165 + 4 x215 + 4 x265 + 4 x315 + 4 x365
       + 4 x415 + 4 x465 - 22 x515 <= 0
 c116: 4 x16 + 4 x66 + 4 x116 + 4 x166 + 4 x216 + 4 x266 + 4 x316 + 4 x366
       + 4 x416 + 4 x466 - 19 x516 <= 0
 c117: 4 x17 + 4 x67 + 4 x117 + 4 x167 + 4 x217 + 4 x267 + 4 x317 + 4 x367
       + 4 x417 + 4 x467 - 20 x517 <= 0
 c118: 4 x18 + 4 x68 + 4 x118 + 4 x168 + 4 x218 + 4 x268 + 4 x318 + 4 x368
       + 4 x418 + 4 x468 - 18 x518 <= 0
 c119: 4 x19 + 4 x69 + 4 x119 + 4 x169 + 4 x219 + 4 x269 + 4 x319 + 4 x369
       + 4 x419 + 4 x469 - 20 x519 <= 0
 c120: 4 x20 + 4 x70 + 4 x120 + 4 x170 + 4 x220 + 4 x270 + 4 x320 + 4 x370
       + 4 x420 + 4 x470 - 19 x520 <= 0
 c121: 4 x21 + 4 x71 + 4 x121 + 4 x171 + 4 x221 + 4 x271 + 4 x321 + 4 x371
       + 4 x421 + 4 x471 - 21 x521 <= 0
 c122: 4 x22 + 4 x72 + 4 x122 + 4 x172 + 4 x222 + 4 x272 + 4 x322 + 4 x372
       + 4 x422 + 4 x472 - 20 x522 <= 0
 c123: 4 x23 + 4 x73 + 4 x123 + 4 x173 + 4 x223 + 4 x273 + 4 x323 + 4 x373
       + 4 x423 + 4 x473 - 22 x523 <= 0
 c124: 4 x24 + 4 x74 + 4 x124 + 4 x174 + 4 x224 + 4 x274 + 4 x324 + 4 x374
       + 4 x424 + 4 x474 - 19 x524 <= 0
 c125: 4 x25 + 4 x75 + 4 x125 + 4 x175 + 4 x225 + 4 x275 + 4 x325 + 4 x375
       + 4 x425 + 4 x475 - 20 x525 <= 0
 c126: 4 x26 + 4 x76 + 4 x126 + 4 x176 + 4 x226 + 4 x276 + 4 x326 + 4 x376
       + 4 x426 + 4 x476 - 18 x526 <= 0
 c127: 4 x27 + 4 x77 + 4 x127 + 4 x177 + 4 x227 + 4 x277 + 4 x327 + 4 x377
       + 4 x427 + 4 x477 - 20 x527 <= 0
 c128: 4 x28 + 4 x78 + 4 x128 + 4 x178 + 4 x228 + 4 x278 + 4 x328 + 4 x378
       + 4 x428 + 4 x478 - 20 x528 <= 0
 c129: 4 x29 + 4 x79 + 4 x129 + 4 x179 + 4 x229 + 4 x279 + 4 x329 + 4 x379
       + 4 x429 + 4 x479 - 21 x529 <= 0
 c130: 4 x30 + 4 x80 + 4 x130 + 4 x180 + 4 x230 + 4 x280 + 4 x330 + 4 x380
       + 4 x430 + 4 x480 - 22 x530 <= 0
 c131: 4 x31 + 4 x81 + 4 x131 + 4 x181 + 4 x231 + 4 x281 + 4 x331 + 4 x381
       + 4 x431 + 4 x481 - 21 x531 <= 0
 c132: 4 x32 + 4 x82 + 4 x132 + 4 x182 + 4 x232 + 4 x282 + 4 x332 + 4 x382
       + 4 x432 + 4 x482 - 20 x532 <= 0
 c133: 4 x33 + 4 x83 + 4 x133 + 4 x183 + 4 x233 + 4 x283 + 4 x333 + 4 x383
       + 4 x433 + 4 x483 - 20 x533 <= 0
 c134: 4 x34 + 4 x84 + 4 x134 + 4 x184 + 4 x234 + 4 x284 + 4 x334 + 4 x384
       + 4 x434 + 4 x484 - 19 x534 <= 0
 c135: 4 x35 + 4 x85 + 4 x135 + 4 x185 + 4 x235 + 4 x285 + 4 x335 + 4 x385
       + 4 x435 + 4 x485 - 21 x535 <= 0
 c136: 4 x36 + 4 x86 + 4 x136 + 4 x186 + 4 x236 + 4 x286 + 4 x336 + 4 x386
       + 4 x436 + 4 x486 - 21 x536 <= 0
 c137: 4 x37 + 4 x87 + 4 x137 + 4 x187 + 4 x237 + 4 x287 + 4 x337 + 4 x387
       + 4 x437 + 4 x487 - 20 x537 <= 0
 c138: 4 x38 + 4 x88 + 4 x138 + 4 x188 + 4 x238 + 4 x288 + 4 x338 + 4 x388
       + 4 x438 + 4 x488 - 19 x538 <= 0
 c139: 4 x39 + 4 x89 + 4 x139 + 4 x189 + 4 x239 + 4 x289 + 4 x339 + 4 x389
       + 4 x439 + 4 x489 - 21 x539 <= 0
 c140: 4 x40 + 4 x90 + 4 x140 + 4 x190 + 4 x240 + 4 x290 + 4 x340 + 4 x390
       + 4 x440 + 4 x490 - 21 x540 <= 0
 c141: 4 x41 + 4 x91 + 4 x141 + 4 x191 + 4 x241 + 4 x291 + 4 x341 + 4 x391
       + 4 x441 + 4 x491 - 20 x541 <= 0
 c142: 4 x42 + 4 x92 + 4 x142 + 4 x192 + 4 x242 + 4 x292 + 4 x342 + 4 x392
       + 4 x442 + 4 x492 - 22 x542 <= 0
 c143: 4 x43 + 4 x93 + 4 x143 + 4 x193 + 4 x243 + 4 x293 + 4 x343 + 4 x393
       + 4 x443 + 4 x493 - 21 x543 <= 0
 c144: 4 x44 + 4 x94 + 4 x144 + 4 x194 + 4 x244 + 4 x294 + 4 x344 + 4 x394
       + 4 x444 + 4 x494 - 19 x544 <= 0
 c145: 4 x45 + 4 x95 + 4 x145 + 4 x195 + 4 x245 + 4 x295 + 4 x345 + 4 x395
       + 4 x445 + 4 x495 - 20 x545 <= 0
 c146: 4 x46 + 4 x96 + 4 x146 + 4 x196 + 4 x246 + 4 x296 + 4 x346 + 4 x396
       + 4 x446 + 4 x496 - 21 x546 <= 0
 c147: 4 x47 + 4 x97 + 4 x147 + 4 x197 + 4 x247 + 4 x297 + 4 x347 + 4 x397
       + 4 x447 + 4 x497 - 19 x547 <= 0
 c148: 4 x48 + 4 x98 + 4 x148 + 4 x198 + 4 x248 + 4 x298 + 4 x348 + 4 x398
       + 4 x448 + 4 x498 - 18 x548 <= 0
 c149: 4 x49 + 4 x99 + 4 x149 + 4 x199 + 4 x249 + 4 x299 + 4 x349 + 4 x399
       + 4 x449 + 4 x499 - 19 x549 <= 0
 c150: 4 x50 + 4 x100 + 4 x150 + 4 x200 + 4 x250 + 4 x300 + 4 x350 + 4 x400
       + 4 x450 + 4 x500 - 22 x550 <= 0
Bounds
 0 <= x1 <= 1
 0 <= x2 <= 1
 0 <= x3 <= 1
 0 <= x4 <= 1
 0 <= x5 <= 1
 0 <= x6 <= 1
 0 <= x7 <= 1
 0 <= x8 <= 1
 0 <= x9 <= 1
 0 <= x10 <= 1
 0 <= x11 <= 1
 0 <= x12 <= 1
 0 <= x13 <= 1
 0 <= x14 <= 1
 0 <= x15 <= 1
 0 <= x16 <= 1
 0 <= x17 <= 1
 0 <= x18 <= 1
 0 <= x19 <= 1
 0 <= x20 <= 1
 0 <= x21 <= 1
 0 <= x22 <= 1
 0 <= x23 <= 1
 0 <= x24 <= 1
 0 <= x25 <= 1
 0 <= x26 <= 1
 0 <= x27 <= 1
 0 <= x28 <= 1
 0 <= x29 <= 1
 0 <= x30 <= 1
 0 <= x31 <= 1
 0 <= x32 <= 1
 0 <= x33 <= 1
 0 <= x34 <= 1
 0 <= x35 <= 1
 0 <= x36 <= 1
 0 <= x37 <= 1
 0 <= x38 <= 1
 0 <= x39 <= 1
 0 <= x40 <= 1
 0 <= x41 <= 1
 0 <= x42 <= 1
 0 <= x43 <= 1
 0 <= x44 <= 1
 0 <= x45 <= 1
 0 <= x46 <= 1
 0 <= x47 <= 1
 0 <= x48 <= 1
 0 <= x49 <= 1
 0 <= x50 <= 1
 0 <= x51 <= 1
 0 <= x52 <= 1
 0 <= x53 <= 1
 0 <= x54 <= 1
 0 <= x55 <= 1
 0 <= x56 <= 1
 0 <= x57 <= 1
 0 <= x58 <= 1
 0 <= x59 <= 1
 0 <= x60 <= 1
 0 <= x61 <= 1
 0 <= x62 <= 1
 0 <= x63 <= 1
 0 <= x64 <= 1
 0 <= x65 <= 1
 0 <= x66 <= 1
 0 <= x67 <= 1
 0 <= x68 <= 1
 0 <= x69 <= 1
 0 <= x70 <= 1
 0 <= x71 <= 1
 0 <= x72 <= 1
 0 <= x73 <= 1
 0 <= x74 <= 1
 0 <= x75 <= 1
 0 <= x76 <= 1
 0 <= x77 <= 1
 0 <= x78 <= 1
 0 <= x79 <= 1
 0 <= x80 <= 1
 0 <= x81 <= 1
 0 <= x82 <= 1
 0 <= x83 <= 1
 0 <= x84 <= 1
 0 <= x85 <= 1
 0 <= x86 <= 1
 0 <= x87 <= 1
 0 <= x88 <= 1
 0 <= x89 <= 1
 0 <= x90 <= 1
 0 <= x91 <= 1
 0 <= x92 <= 1
 0 <= x93 <= 1
 0 <= x94 <= 1
 0 <= x95 <= 1
 0 <= x96 <= 1
 0 <= x97 <= 1
 0 <= x98 <= 1
 0 <= x99 <= 1
 0 <= x100 <= 1
 0 <= x101 <= 1
 0 <= x102 <= 1
 0 <= x103 <= 1
 0 <= x104 <= 1
 0 <= x105 <= 1
 0 <= x106 <= 1
 0 <= x107 <= 1
 0 <= x108 <= 1
 0 <= x109 <= 1
 0 <= x110 <= 1
 0 <= x111 <= 1
 0 <= x112 <= 1
 0 <= x113 <= 1
 0 <= x114 <= 1
 0 <= x115 <= 1
 0 <= x116 <= 1
 0 <= x117 <= 1
 0 <= x118 <= 1
 0 <= x119 <= 1
 0 <= x120 <= 1
 0 <= x121 <= 1
 0 <= x122 <= 1
 0 <= x123 <= 1
 0 <= x124 <= 1
 0 <= x125 <= 1
 0 <= x126 <= 1
 0 <= x127 <= 1
 0 <= x128 <= 1
 0 <= x129 <= 1
 0 <= x130 <= 1
 0 <= x131 <= 1
 0 <= x132 <= 1
 0 <= x133 <= 1
 0 <= x134 <= 1
 0 <= x135 <= 1
 0 <= x136 <= 1
 0 <= x137 <= 1
 0 <= x138 <= 1
 0 <= x139 <= 1
 0 <= x140 <= 1
 0 <= x141 <= 1
 0 <= x142 <= 1
 0 <= x143 <= 1
 0 <= x144 <= 1
 0 <= x145 <= 1
 0 <= x146 <= 1
 0 <= x147 <= 1
 0 <= x148 <= 1
 0 <= x149 <= 1
 0 <= x150 <= 1
 0 <= x151 <= 1
 0 <= x152 <= 1
 0 <= x153 <= 1
 0 <= x154 <= 1
 0 <= x155 <= 1
 0 <= x156 <= 1
 0 <= x157 <= 1
 0 <= x158 <= 1
 0 <= x159 <= 1
 0 <= x160 <= 1
 0 <= x161 <= 1
 0 <= x162 <= 1
 0 <= x163 <= 1
 0 <= x164 <= 1
 0 <= x165 <= 1
 0 <= x166 <= 1
 0 <= x167 <= 1
 0 <= x168 <= 1
 0 <= x169 <= 1
 0 <= x170 <= 1
 0 <= x171 <= 1
 0 <= x172 <= 1
 0 <= x173 <= 1
 0 <= x174 <= 1
 0 <= x175 <= 1
 0 <= x176 <= 1
 0 <= x177 <= 1
 0 <= x178 <= 1
 0 <= x179 <= 1
 0 <= x180 <= 1
 0 <= x181 <= 1
 0 <= x182 <= 1
 0 <= x183 <= 1
 0 <= x184 <= 1
 0 <= x185 <= 1
 0 <= x186 <= 1
 0 <= x187 <= 1
 0 <= x188 <= 1
 0 <= x189 <= 1
 0 <= x190 <= 1
 0 <= x191 <= 1
 0 <= x192 <= 1
 0 <= x193 <= 1
 0 <= x194 <= 1
 0 <= x195 <= 1
 0 <= x196 <= 1
 0 <= x197 <= 1
 0 <= x198 <= 1
 0 <= x199 <= 1
 0 <= x200 <= 1
 0 <= x201 <= 1
 0 <= x202 <= 1
 0 <= x203 <= 1
 0 <= x204 <= 1
 0 <= x205 <= 1
 0 <= x206 <= 1
 0 <= x207 <= 1
 0 <= x208 <= 1
 0 <= x209 <= 1
 0 <= x210 <= 1
 0 <= x211 <= 1
 0 <= x212 <= 1
 0 <= x213 <= 1
 0 <= x214 <= 1
 0 <= x215 <= 1
 0 <= x216 <= 1
 0 <= x217 <= 1
 0 <= x218 <= 1
 0 <= x219 <= 1
 0 <= x220 <= 1
 0 <= x221 <= 1
 0 <= x222 <= 1
 0 <= x223 <= 1
 0 <= x224 <= 1
 0 <= x225 <= 1
 0 <= x226 <= 1
 0 <= x227 <= 1
 0 <= x228 <= 1
 0 <= x229 <= 1
 0 <= x230 <= 1
 0 <= x231 <= 1
 0 <= x232 <= 1
 0 <= x233 <= 1
 0 <= x234 <= 1
 0 <= x235 <= 1
 0 <= x236 <= 1
 0 <= x237 <= 1
 0 <= x238 <= 1
 0 <= x239 <= 1
 0 <= x240 <= 1
 0 <= x241 <= 1
 0 <= x242 <= 1
 0 <= x243 <= 1
 0 <= x244 <= 1
 0 <= x245 <= 1
 0 <= x246 <= 1
 0 <= x247 <= 1
 0 <= x248 <= 1
 0 <= x249 <= 1
 0 <= x250 <= 1
 0 <= x251 <= 1
 0 <= x252 <= 1
 0 <= x253 <= 1
 0 <= x254 <= 1
 0 <= x255 <= 1
 0 <= x256 <= 1
 0 <= x257 <= 1
 0 <= x258 <= 1
 0 <= x259 <= 1
 0 <= x260 <= 1
 0 <= x261 <= 1
 0 <= x262 <= 1
 0 <= x263 <= 1
 0 <= x264 <= 1
 0 <= x265 <= 1
 0 <= x266 <= 1
 0 <= x267 <= 1
 0 <= x268 <= 1
 0 <= x269 <= 1
 0 <= x270 <= 1
 0 <= x271 <= 1
 0 <= x272 <= 1
 0 <= x273 <= 1
 0 <= x274 <= 1
 0 <= x275 <= 1
 0 <= x276 <= 1
 0 <= x277 <= 1
 0 <= x278 <= 1
 0 <= x279 <= 1
 0 <= x280 <= 1
 0 <= x281 <= 1
 0 <= x282 <= 1
 0 <= x283 <= 1
 0 <= x284 <= 1
 0 <= x285 <= 1
 0 <= x286 <= 1
 0 <= x287 <= 1
 0 <= x288 <= 1
 0 <= x289 <= 1
 0 <= x290 <= 1
 0 <= x291 <= 1
 0 <= x292 <= 1
 0 <= x293 <= 1
 0 <= x294 <= 1
 0 <= x295 <= 1
 0 <= x296 <= 1
 0 <= x297 <= 1
 0 <= x298 <= 1
 0 <= x299 <= 1
 0 <= x300 <= 1
 0 <= x301 <= 1
 0 <= x302 <= 1
 0 <= x303 <= 1
 0 <= x304 <= 1
 0 <= x305 <= 1
 0 <= x306 <= 1
 0 <= x307 <= 1
 0 <= x308 <= 1
 0 <= x309 <= 1
 0 <= x310 <= 1
 0 <= x311 <= 1
 0 <= x312 <= 1
 0 <= x313 <= 1
 0 <= x314 <= 1
 0 <= x315 <= 1
 0 <= x316 <= 1
 0 <= x317 <= 1
 0 <= x318 <= 1
 0 <= x319 <= 1
 0 <= x320 <= 1
 0 <= x321 <= 1
 0 <= x322 <= 1
 0 <= x323 <= 1
 0 <= x324 <= 1
 0 <= x325 <= 1
 0 <= x326 <= 1
 0 <= x327 <= 1
 0 <= x328 <= 1
 0 <= x329 <= 1
 0 <= x330 <= 1
 0 <= x331 <= 1
 0 <= x332 <= 1
 0 <= x333 <= 1
 0 <= x334 <= 1
 0 <= x335 <= 1
 0 <= x336 <= 1
 0 <= x337 <= 1
 0 <= x338 <= 1
 0 <= x339 <= 1
 0 <= x340 <= 1
 0 <= x341 <= 1
 0 <= x342 <= 1
 0 <= x343 <= 1
 0 <= x344 <= 1
 0 <= x345 <= 1
 0 <= x346 <= 1
 0 <= x347 <= 1
 0 <= x348 <= 1
 0 <= x349 <= 1
 0 <= x350 <= 1
 0 <= x351 <= 1
 0 <= x352 <= 1
 0 <= x353 <= 1
 0 <= x354 <= 1
 0 <= x355 <= 1
 0 <= x356 <= 1
 0 <= x357 <= 1
 0 <= x358 <= 1
 0 <= x359 <= 1
 0 <= x360 <= 1
 0 <= x361 <= 1
 0 <= x362 <= 1
 0 <= x363 <= 1
 0 <= x364 <= 1
 0 <= x365 <= 1
 0 <= x366 <= 1
 0 <= x367 <= 1
 0 <= x368 <= 1
 0 <= x369 <= 1
 0 <= x370 <= 1
 0 <= x371 <= 1
 0 <= x372 <= 1
 0 <= x373 <= 1
 0 <= x374 <= 1
 0 <= x375 <= 1
 0 <= x376 <= 1
 0 <= x377 <= 1
 0 <= x378 <= 1
 0 <= x379 <= 1
 0 <= x380 <= 1
 0 <= x381 <= 1
 0 <= x382 <= 1
 0 <= x383 <= 1
 0 <= x384 <= 1
 0 <= x385 <= 1
 0 <= x386 <= 1
 0 <= x387 <= 1
 0 <= x388 <= 1
 0 <= x389 <= 1
 0 <= x390 <= 1
 0 <= x391 <= 1
 0 <= x392 <= 1
 0 <= x393 <= 1
 0 <= x394 <= 1
 0 <= x395 <= 1
 0 <= x396 <= 1
 0 <= x397 <= 1
 0 <= x398 <= 1
 0 <= x399 <= 1
 0 <= x400 <= 1
 0 <= x401 <= 1
 0 <= x402 <= 1
 0 <= x403 <= 1
 0 <= x404 <= 1
 0 <= x405 <= 1
 0 <= x406 <= 1
 0 <= x407 <= 1
 0 <= x408 <= 1
 0 <= x409 <= 1
 0 <= x410 <= 1
 0 <= x411 <= 1
 0 <= x412 <= 1
 0 <= x413 <= 1
 0 <= x414 <= 1
 0 <= x415 <= 1
 0 <= x416 <= 1
 0 <= x417 <= 1
 0 <= x418 <= 1
 0 <= x419 <= 1
 0 <= x420 <= 1
 0 <= x421 <= 1
 0 <= x422 <= 1
 0 <= x423 <= 1
 0 <= x424 <= 1
 0 <= x425 <= 1
 0 <= x426 <= 1
 0 <= x427 <= 1
 0 <= x428 <= 1
 0 <= x429 <= 1
 0 <= x430 <= 1
 0 <= x431 <= 1
 0 <= x432 <= 1
 0 <= x433 <= 1
 0 <= x434 <= 1
 0 <= x435 <= 1
 0 <= x436 <= 1
 0 <= x437 <= 1
 0 <= x438 <= 1
 0 <= x439 <= 1
 0 <= x440 <= 1
 0 <= x441 <= 1
 0 <= x442 <= 1
 0 <= x443 <= 1
 0 <= x444 <= 1
 0 <= x445 <= 1
 0 <= x446 <= 1
 0 <= x447 <= 1
 0 <= x448 <= 1
 0 <= x449 <= 1
 0 <= x450 <= 1
 0 <= x451 <= 1
 0 <= x452 <= 1
 0 <= x453 <= 1
 0 <= x454 <= 1
 0 <= x455 <= 1
 0 <= x456 <= 1
 0 <= x457 <= 1
 0 <= x458 <= 1
 0 <= x459 <= 1
 0 <= x460 <= 1
 0 <= x461 <= 1
 0 <= x462 <= 1
 0 <= x463 <= 1
 0 <= x464 <= 1
 0 <= x465 <= 1
 0 <= x466 <= 1
 0 <= x467 <= 1
 0 <= x468 <= 1
 0 <= x469 <= 1
 0 <= x470 <= 1
 0 <= x471 <= 1
 0 <= x472 <= 1
 0 <= x473 <= 1
 0 <= x474 <= 1
 0 <= x475 <= 1
 0 <= x476 <= 1
 0 <= x477 <= 1
 0 <= x478 <= 1
 0 <= x479 <= 1
 0 <= x480 <= 1
 0 <= x481 <= 1
 0 <= x482 <= 1
 0 <= x483 <= 1
 0 <= x484 <= 1
 0 <= x485 <= 1
 0 <= x486 <= 1
 0 <= x487 <= 1
 0 <= x488 <= 1
 0 <= x489 <= 1
 0 <= x490 <= 1
 0 <= x491 <= 1
 0 <= x492 <= 1
 0 <= x493 <= 1
 0 <= x494 <= 1
 0 <= x495 <= 1
 0 <= x496 <= 1
 0 <= x497 <= 1
 0 <= x498 <= 1
 0 <= x499 <= 1
 0 <= x500 <= 1
 0 <= x501 <= 1
 0 <= x502 <= 1
 0 <= x503 <= 1
 0 <= x504 <= 1
 0 <= x505 <= 1
 0 <= x506 <= 1
 0 <= x507 <= 1
 0 <= x508 <= 1
 0 <= x509 <= 1
 0 <= x510 <= 1
 0 <= x511 <= 1
 0 <= x512 <= 1
 0 <= x513 <= 1
 0 <= x514 <= 1
 0 <= x515 <= 1
 0 <= x516 <= 1
 0 <= x517 <= 1
 0 <= x518 <= 1
 0 <= x519 <= 1
 0 <= x520 <= 1
 0 <= x521 <= 1
 0 <= x522 <= 1
 0 <= x523 <= 1
 0 <= x524 <= 1
 0 <= x525 <= 1
 0 <= x526 <= 1
 0 <= x527 <= 1
 0 <= x528 <= 1
 0 <= x529 <= 1
 0 <= x530 <= 1
 0 <= x531 <= 1
 0 <= x532 <= 1
 0 <= x533 <= 1
 0 <= x534 <= 1
 0 <= x535 <= 1
 0 <= x536 <= 1
 0 <= x537 <= 1
 0 <= x538 <= 1
 0 <= x539 <= 1
 0 <= x540 <= 1
 0 <= x541 <= 1
 0 <= x542 <= 1
 0 <= x543 <= 1
 0 <= x544 <= 1
 0 <= x545 <= 1
 0 <= x546 <= 1
 0 <= x547 <= 1
 0 <= x548 <= 1
 0 <= x549 <= 1
 0 <= x550 <= 1
Binaries
 x501  x502  x503  x504  x505  x506  x507  x508  x509  x510  x511  x512  x513 
 x514  x515  x516  x517  x518  x519  x520  x521  x522  x523  x524  x525  x526 
 x527  x528  x529  x530  x531  x532  x533  x534  x535  x536  x537  x538  x539 
 x540  x541  x542  x543  x544  x545  x546  x547  x548  x549  x550 
End
